69 57 20 14 39 48 43 38 27 76 78 63 16 42 60 11 35 37 94 71 82 95 44 36 28 10 86 13 32 26 30 58 61 41 62 12 79 73 4 34 92 59 55 54 17 25 52 49 68 81 93 99 50 72 87 19 1 66 84 70 83 29 45 23 97 51 9 80 56 7 15 0 53 67 98 77 88 65 96 85 47 2 91 18 8 3 90 75 46 21 6 64 74 89 40 33 31 5 22 24 

